% Data file students-to-courses
n_courses = 4;

capacity = [1, 2, 1, 2];
c_name = ["a", "b", "c", "d"];

n_students = 6;
s_name = ["A","B","C","D","E","F"];

n_wish = 3;

% Die Kurswünsche der Schüler, 1, 2, und dritte Wahl
% Die Kurse sind mit ihren ids angegeben, mit 1 begonnen
% (Kurs 1 ist der "a" Kurs)
wish = [|1, 2, 3,   % A => a, b, c
    |4, 2, 1,       % B => d, b, a
    |1, 3, 4,       % C => a, c, d
    |3, 4, 1,       % D => c, d, a
    |4, 3, 2,       % E => d, c, b
    |2, 4, 1|];     % F => b, d, a

% mögliche Lösung:
% x-Achse: Kurse
% y-Achse: Schüler
% Zellen: die besuchten Kurse mit ihrer Priorisierung
%
%   | a | b | c | d |
% -------------------
% A |   | 2 |   |   |
% B |   |   |   | 1 |
% C | 1 |   |   |   |
% D |   |   | 1 |   |
% E |   |   |   | 1 |
% F |   | 1 |   |   |